43, 9035
7248, 4893
7428, 3804
4701, 4440
12331, 2078
4506, 2253
3434, 4599
12270, 1088
8217, 1700
9679, 2403
12182, 1567
10269, 4590
4536, 1079
11388, 2201
4147, 3229
11753, 3071
12212, 4215
10974, 2709
5918, 4667
10882, 4176
12085, 2665
9773, 1132
4150, 2232
3912, 3258
3371, 1324
4239, 4747
11269, 1546
11034, 4897
3392, 4042
4056, 2218
5213, 4244
4712, 2350
5951, 2461
9277, 1554
6737, 2195
9085, 3216
6376, 2286
3661, 1075
5567, 1019
11863, 2824
4608, 4354
5491, 2902
10355, 3835
9187, 3062